8 3 8 6 3 1 1 8 5 2 7 7 1 5 -1 
-1 0 -1 5 6 6 9 1 0 6 -1 1 -1 9 -1 
3 3 -1 9 5 7 1 0 4 3 5 -1 6 3 -1 
-1 0 3 1 0 1 1 4 8 -1 1 8 0 1 -1 
6 1 4 4 2 1 9 5 1 4 8 8 2 3 -1 
7 0 5 8 2 9 8 5 8 8 -1 -1 2 5 -1 
-1 2 6 7 9 8 1 4 2 3 0 7 4 8 -1 
5 6 2 0 3 6 9 -1 9 1 1 8 2 5 -1 
9 7 9 5 3 5 7 3 9 1 1 1 4 5 -1 
2 4 7 6 7 6 3 9 6 0 9 5 -1 6 -1 
9 2 4 2 -1 6 3 4 2 4 5 6 0 4 -1 
6 0 8 0 9 2 7 1 4 3 4 1 1 4 -1 
7 0 9 2 0 6 5 5 5 7 3 5 7 6 -1 
0 9 1 -1 0 8 0 7 0 7 3 1 5 8 -1 
1 5 5 9 8 4 8 5 6 8 0 4 0 8 -1 
